p cnf 1115 1295
c ind 730 731 732 745 752 778 839 840 853 860 0
c ind 864 866 869 885 887 890 902 903 922 924 0
c ind 928 939 940 944 945 946 950 952 723 838 0
c ind 753 765 724 725 837 728 729 836 1068 1069 0
c ind 1067 1066 1064 1100 1082 1091 1105 1065 1086 1096 0
c ind 1113 1099 1081 1090 1104 1085 1095 1112 1063 1058 0
c ind 1062 1061 1060 1098 1080 1089 1103 1084 1094 1059 0
c ind 1111 1097 1079 1088 1102 1083 1093 1110 1074 1078 0
c ind 1108 1056 1057 1055 1050 1054 1053 1052 1076 1106 0
c ind 1051 1077 1107 1087 1101 1092 1109 1048 1049 726 0
c ind 727 1041 1042 1047 1046 1045 1044 1043 1039 1040 0
c ind 1038 1075 1037 1035 1036 1071 1034 1029 1033 1032 0
c ind 1031 1030 1072 1027 1028 1026 1021 1025 1024 1023 0
c ind 1022 1019 1020 1012 1013 1018 1017 1016 1015 1014 0
c ind 1010 1011 1009 1008 1073 1006 1007 1005 1070 1000 0
c ind 1004 1003 1002 1001 998 999 997 992 996 995 0
c ind 994 993 990 991 983 984 989 988 987 986 0
c ind 985 981 982 980 979 977 978 976 971 975 0
c ind 974 973 972 969 970 968 963 967 966 965 0
c ind 964 961 962 954 955 960 959 958 957 956 0
c ind 934 935 933 932 931 953 943 941 942 930 0
c ind 929 951 938 927 949 947 948 936 937 926 0
c ind 925 918 923 921 919 920 917 910 909 916 0
c ind 915 914 913 912 911 908 907 906 905 904 0
c ind 722 897 896 894 895 893 892 898 899 891 0
c ind 889 900 888 901 886 884 882 883 881 880 0
c ind 879 878 877 876 735 875 873 874 872 871 0
c ind 843 870 868 867 865 863 861 862 859 854 0
c ind 858 855 856 850 857 852 848 849 851 847 0
c ind 842 846 844 845 841 835 828 820 834 833 0
c ind 832 831 814 813 812 830 811 829 810 809 0
c ind 808 827 826 825 824 823 822 821 819 818 0
c ind 817 816 815 807 800 792 806 805 804 803 0
c ind 786 785 784 802 783 801 782 781 780 799 0
c ind 798 797 796 795 794 793 791 790 789 788 0
c ind 787 779 777 775 776 766 767 774 773 772 0
c ind 771 770 768 769 762 761 763 764 760 759 0
c ind 758 757 755 756 754 751 750 746 747 748 0
c ind 749 742 744 741 740 743 734 739 733 738 0
c ind 736 737 1 0
c ret 606 607 608 609 610 611 612 613 614 615 0
c ret 616 617 618 619 620 621 622 623 624 625 0
c ret 626 627 628 629 630 631 632 633 634 635 0
c ret 636 637 638 639 640 641 642 643 644 645 0
c ret 646 647 648 649 650 651 652 653 654 655 0
c ret 656 657 658 659 660 661 662 663 664 665 0
c ret 666 667 668 669 670 671 672 673 674 675 0
c ret 676 677 678 679 680 681 682 683 684 685 0
c ret 686 301 687 307 308 688 309 689 310 690 0
c ret 311 312 313 314 315 316 317 318 319 320 0
c ret 321 322 323 324 325 691 692 326 327 693 0
c ret 694 328 329 330 331 332 695 333 334 335 0
c ret 336 337 338 696 339 340 697 341 342 343 0
c ret 698 302 699 344 345 346 347 348 349 350 0
c ret 700 351 352 353 701 702 354 355 356 357 0
c ret 703 704 358 359 360 361 362 363 364 365 0
c ret 366 367 368 369 370 371 705 372 706 373 0
c ret 374 375 707 376 708 377 378 379 380 381 0
c ret 382 383 709 384 303 385 386 387 710 388 0
c ret 711 389 390 391 712 713 392 393 394 395 0
c ret 396 397 398 399 400 714 715 401 402 403 0
c ret 404 405 716 406 407 408 409 410 411 412 0
c ret 413 414 717 415 416 417 718 418 719 419 0
c ret 420 720 421 422 721 423 424 304 425 426 0
c ret 427 428 429 430 431 432 433 434 435 436 0
c ret 437 438 439 440 441 442 443 444 445 446 0
c ret 447 448 449 450 451 452 453 454 455 456 0
c ret 457 458 459 460 461 462 463 464 465 466 0
c ret 467 468 469 470 471 472 473 474 475 476 0
c ret 477 478 479 480 481 482 483 484 485 486 0
c ret 487 488 489 490 491 492 493 494 495 305 0
c ret 496 497 498 499 500 501 502 503 504 505 0
c ret 506 507 508 509 510 511 512 513 514 515 0
c ret 516 517 518 519 520 521 522 523 524 525 0
c ret 526 527 528 529 530 531 532 533 534 306 0
c ret 535 536 537 538 539 540 541 542 543 544 0
c ret 545 546 547 548 549 550 551 552 553 554 0
c ret 555 556 557 558 559 560 561 562 563 564 0
c ret 565 566 567 568 569 570 571 572 573 574 0
c ret 575 576 577 578 579 580 581 582 583 584 0
c ret 585 586 587 588 589 590 591 592 593 594 0
c ret 595 596 597 598 599 600 601 602 603 604 0
c ret 605 0
2 4 5 -297 0
2 3 5 -297 0
-2 297 0
-2 -5 0
-2 -3 -4 0
3 533 0
3 -534 540 0
3 534 541 0
-3 -533 534 -541 0
-3 -533 -534 -540 0
4 533 0
4 -534 -540 0
4 534 -541 0
-4 -533 534 541 0
-4 -533 -534 540 0
5 6 55 101 -122 0
5 -6 -55 101 -122 0
-5 -101 0
-5 6 -55 0
-5 122 0
-5 -6 55 0
6 -7 -14 0
6 -7 51 0
-6 7 0
-6 14 -51 0
7 -8 10 0
7 -8 9 13 0
-7 8 0
-7 -9 -10 0
-7 -10 -13 0
8 -983 -1012 -1041 0
-8 983 0
-8 1012 0
-8 1041 0
9 954 0
9 -955 -961 0
9 955 -962 0
-9 -954 955 962 0
-9 -954 -955 961 0
10 -11 -12 0
-9 10 -12 0
-10 12 0
9 -10 11 0
-9 11 0
11 963 -970 0
11 -963 -969 0
9 -11 -963 969 0
9 -11 963 970 0
12 954 0
12 -955 961 0
12 955 962 0
-12 -954 955 -962 0
-12 -954 -955 -961 0
-9 13 0
13 -963 969 0
13 963 970 0
9 -13 -963 -969 0
9 -13 963 -970 0
14 -15 -50 -1113 0
14 15 -16 -50 0
-14 50 0
-14 -15 1113 0
-14 15 16 0
15 949 -951 0
-15 -949 0
-15 951 0
16 -17 -1112 0
16 17 -18 0
-16 -17 1112 0
-16 17 18 0
17 921 -923 0
-17 -921 0
-17 923 0
18 19 42 49 0
18 19 42 -45 0
-18 -19 0
-18 -42 0
-18 45 -49 0
19 -40 722 -897 0
19 20 722 897 0
-19 -722 0
-19 40 -897 0
-19 -20 897 0
20 -21 -1109 0
-20 1109 0
-20 21 0
21 -22 36 0
-21 22 0
-21 -36 0
22 -29 30 0
22 23 30 -787 0
-22 -30 0
-22 -23 29 0
-22 29 787 0
23 24 0
23 27 -786 0
23 27 792 0
-23 -24 -27 0
-23 -24 786 -792 0
24 -25 26 -780 -787 0
-24 25 0
-24 -26 0
-24 780 0
-24 787 0
25 781 782 783 0
-25 -781 0
-25 -783 0
-25 -782 0
26 784 -785 0
-26 -784 0
-26 785 0
27 28 786 792 -793 0
-27 -786 0
-27 -28 0
-27 793 0
-27 -792 0
28 800 801 0
-28 -800 0
-28 -801 0
25 29 -780 0
26 29 -780 -786 0
-29 780 0
-25 -29 786 0
-25 -26 -29 0
30 32 35 0
30 32 -34 0
30 31 32 0
-30 -32 0
-30 -31 34 -35 0
31 809 810 811 0
-31 -809 0
-31 -811 0
-31 -810 0
31 32 -808 0
32 33 -808 -814 0
-32 808 0
-31 -32 814 0
-31 -32 -33 0
33 812 -813 0
-33 -812 0
-33 813 0
34 820 821 0
34 820 828 829 0
-34 -820 0
-34 -821 -828 0
-34 -821 -829 0
33 35 -808 814 -815 0
-35 815 0
-33 -35 0
-35 808 0
-35 -814 0
36 -37 -754 0
36 -39 -754 0
36 -38 -754 0
-36 754 0
-36 37 38 39 0
37 -755 756 757 0
-37 755 0
-37 -757 0
-37 -756 0
38 760 763 764 0
-38 -760 0
-38 -764 0
-38 -763 0
39 -760 761 762 0
-39 760 0
-39 -762 0
-39 -761 0
40 -41 1110 0
20 40 41 0
-40 -41 -1110 0
-20 -40 41 0
41 863 -865 0
-41 -863 0
-41 865 0
42 -43 -44 -907 0
42 -43 -44 -908 0
-42 44 0
-42 43 0
-42 907 908 0
43 910 911 912 913 0
-43 -913 0
-43 -912 0
-43 -910 0
-43 -911 0
44 -904 -905 -906 909 0
-44 906 0
-44 -909 0
-44 904 0
-44 905 0
40 45 -46 0
-40 -45 0
-45 46 0
46 47 48 0
-46 -47 0
-46 -48 0
47 876 877 878 0
-47 -876 0
-47 -878 0
-47 -877 0
48 884 -886 0
-48 -884 0
-48 886 0
48 49 -722 0
49 -722 1111 0
-49 722 0
-48 -49 -1111 0
50 -918 925 0
-50 918 0
-50 -925 0
51 52 -918 0
16 18 51 0
18 51 52 0
16 51 -918 0
-18 -51 918 0
-16 -51 -52 0
52 54 -918 -925 0
52 53 -918 -925 0
-52 918 0
-52 925 0
-52 -53 -54 0
53 929 -930 -931 932 0
-53 -929 0
-53 -932 0
-53 931 0
-53 930 0
54 -926 927 0
-54 926 0
-54 -927 0
55 -56 -58 0
55 -56 97 0
-55 56 0
-55 58 -97 0
4 56 -57 0
3 56 -57 0
-56 57 0
-3 -4 -56 0
57 -562 -591 -620 -649 0
-57 649 0
-57 562 0
-57 620 0
-57 591 0
58 -59 -96 -721 0
58 59 -60 -96 0
-58 96 0
-58 -59 721 0
-58 59 60 0
59 528 -530 0
-59 -528 0
-59 530 0
60 -61 -720 0
60 61 -62 0
-60 -61 720 0
-60 61 62 0
61 500 -502 0
-61 -500 0
-61 502 0
62 63 88 95 0
62 63 88 -91 0
-62 -63 0
-62 -88 0
-62 91 -95 0
63 -86 301 -476 0
63 64 301 476 0
-63 -301 0
-63 86 -476 0
-63 -64 476 0
64 -65 -717 0
-64 717 0
-64 65 0
65 66 -70 0
-65 -66 0
-65 70 0
66 -67 -333 0
66 -69 -333 0
66 -68 -333 0
-66 333 0
-66 67 68 69 0
67 -334 335 336 0
-67 334 0
-67 -336 0
-67 -335 0
68 339 342 343 0
-68 -339 0
-68 -343 0
-68 -342 0
69 -339 340 341 0
-69 339 0
-69 -341 0
-69 -340 0
70 71 -78 0
70 71 81 -366 0
-70 -71 0
-70 78 -81 0
-70 78 366 0
71 -72 75 0
71 75 387 0
-71 -75 0
-71 72 -387 0
72 -74 390 393 0
72 -73 -74 390 0
-72 -390 0
-72 74 0
-72 73 -393 0
73 391 -392 0
-73 -391 0
-73 392 0
74 388 389 0
-74 -388 0
-74 -389 0
73 -74 75 76 -77 0
74 -75 0
-75 -76 0
-73 -75 0
-75 77 0
76 399 400 0
76 399 407 408 0
-76 -399 0
-76 -400 -407 0
-76 -400 -408 0
77 -387 390 393 -394 0
-77 394 0
-77 -393 0
-77 387 0
-77 -390 0
78 79 -359 0
78 80 -359 -365 0
-78 359 0
-78 -79 365 0
-78 -79 -80 0
79 360 361 362 0
-79 -360 0
-79 -362 0
-79 -361 0
80 363 -364 0
-80 -363 0
-80 364 0
81 82 84 0
-81 -82 0
-81 -84 0
82 -83 365 -371 0
-82 83 0
-82 371 0
-82 -365 0
-79 80 83 -359 -366 0
79 -83 0
-80 -83 0
-83 359 0
-83 366 0
-83 84 -85 -379 0
-83 84 -85 -380 0
-84 85 0
83 -84 0
-84 379 380 0
85 365 371 -372 0
-85 372 0
-85 -371 0
-85 -365 0
86 -87 718 0
64 86 87 0
-86 -87 -718 0
-64 -86 87 0
87 442 -444 0
-87 -442 0
-87 444 0
88 -89 -90 -486 0
88 -89 -90 -487 0
-88 90 0
-88 89 0
-88 486 487 0
89 489 490 491 492 0
-89 -492 0
-89 -491 0
-89 -489 0
-89 -490 0
90 -483 -484 -485 488 0
-90 485 0
-90 -488 0
-90 483 0
-90 484 0
86 91 -92 0
-86 -91 0
-91 92 0
92 93 94 0
-92 -93 0
-92 -94 0
93 455 456 457 0
-93 -455 0
-93 -457 0
-93 -456 0
94 463 -465 0
-94 -463 0
-94 465 0
94 95 -301 0
95 -301 719 0
-95 301 0
-94 -95 -719 0
96 -497 504 0
-96 497 0
-96 -504 0
97 98 -497 0
60 62 97 0
62 97 98 0
60 97 -497 0
-62 -97 497 0
-60 -97 -98 0
98 100 -497 -504 0
98 99 -497 -504 0
-98 497 0
-98 504 0
-98 -99 -100 0
99 -505 506 0
-99 505 0
-99 -506 0
100 508 -509 -510 511 0
-100 -508 0
-100 -511 0
-100 510 0
-100 509 0
101 102 -112 0
-101 -102 0
-101 112 0
-7 102 -103 0
-7 102 111 0
7 -102 0
-102 103 -111 0
15 -50 103 -104 0
-15 -50 103 -1091 0
50 -103 0
15 -103 104 0
-15 -103 1091 0
-17 104 -1090 0
17 104 -105 0
-17 -104 1090 0
17 -104 105 0
42 105 106 110 0
42 105 106 -109 0
-42 -105 0
-105 -106 0
-105 109 -110 0
106 -108 722 -897 0
106 107 722 897 0
-106 -722 0
-106 108 -897 0
-106 -107 897 0
-21 107 -1087 0
-107 1087 0
21 -107 0
-41 108 1088 0
41 107 108 0
-41 -108 -1088 0
41 -107 -108 0
-46 108 109 0
46 -109 0
-108 -109 0
48 110 -722 0
110 -722 1089 0
-110 722 0
-48 -110 -1089 0
104 111 -918 0
52 105 111 0
104 105 111 0
52 111 -918 0
-52 -104 -111 0
-105 -111 918 0
-56 112 -113 0
-56 112 121 0
56 -112 0
-112 113 -121 0
59 -96 113 -114 0
-59 -96 113 -699 0
96 -113 0
59 -113 114 0
-59 -113 699 0
-61 114 -698 0
61 114 -115 0
-61 -114 698 0
61 -114 115 0
88 115 116 120 0
88 115 116 -119 0
-88 -115 0
-115 -116 0
-115 119 -120 0
116 -118 301 -476 0
116 117 301 476 0
-116 -301 0
-116 118 -476 0
-116 -117 476 0
-65 117 -695 0
-117 695 0
65 -117 0
-87 118 696 0
87 117 118 0
-87 -118 -696 0
87 -117 -118 0
-92 118 119 0
92 -119 0
-118 -119 0
94 120 -301 0
120 -301 697 0
-120 301 0
-94 -120 -697 0
114 121 -497 0
98 115 121 0
114 115 121 0
98 121 -497 0
-98 -114 -121 0
-115 -121 497 0
102 122 -123 -162 0
-112 122 -123 -162 0
-122 162 0
-122 123 0
-102 112 -122 0
123 -124 -134 153 0
123 124 134 -144 0
123 124 134 153 0
123 -124 -134 -144 0
-123 124 -134 0
-123 -124 134 0
-123 144 -153 0
-7 124 -125 0
-7 124 133 0
7 -124 0
-124 125 -133 0
15 -50 125 -126 0
-15 -50 125 -1082 0
50 -125 0
15 -125 126 0
-15 -125 1082 0
-17 126 -1081 0
17 126 -127 0
-17 -126 1081 0
17 -126 127 0
42 127 128 132 0
42 127 128 -131 0
-42 -127 0
-127 -128 0
-127 131 -132 0
128 129 -722 1080 0
48 128 129 -722 0
-128 722 0
-128 -129 0
-48 -128 -1080 0
-46 129 130 0
46 -129 0
-129 -130 0
21 41 130 0
-41 130 1079 0
41 130 727 0
-41 -130 -1079 0
-21 41 -130 -727 0
-21 41 131 -727 0
-21 131 -727 897 0
21 -131 0
-131 727 0
-41 -131 -897 0
132 722 1079 0
132 722 897 0
41 132 722 0
-132 -722 0
-41 -132 -897 -1079 0
126 133 -918 0
52 127 133 0
126 127 133 0
52 133 -918 0
-52 -126 -133 0
-127 -133 918 0
-56 134 -135 0
-56 134 143 0
56 -134 0
-134 135 -143 0
59 -96 135 -136 0
-59 -96 135 -690 0
96 -135 0
59 -135 136 0
-59 -135 690 0
-61 136 -689 0
61 136 -137 0
-61 -136 689 0
61 -136 137 0
88 137 138 142 0
88 137 138 -141 0
-88 -137 0
-137 -138 0
-137 141 -142 0
138 139 -301 688 0
94 138 139 -301 0
-138 301 0
-138 -139 0
-94 -138 -688 0
-92 139 140 0
92 -139 0
-139 -140 0
65 87 140 0
-87 140 687 0
87 140 306 0
-87 -140 -687 0
-65 87 -140 -306 0
-65 87 141 -306 0
-65 141 -306 476 0
65 -141 0
-141 306 0
-87 -141 -476 0
142 301 687 0
142 301 476 0
87 142 301 0
-142 -301 0
-87 -142 -476 -687 0
136 143 -497 0
98 137 143 0
136 137 143 0
98 143 -497 0
-98 -136 -143 0
-137 -143 497 0
-7 144 -145 0
-7 144 152 0
7 -144 0
-144 145 -152 0
15 -50 145 -146 0
-15 -50 145 -1086 0
50 -145 0
15 -145 146 0
-15 -145 1086 0
-17 146 -1085 0
17 146 -147 0
-17 -146 1085 0
17 -146 147 0
42 147 148 151 0
42 147 148 -150 0
-42 -147 0
-147 -148 0
-147 150 -151 0
148 -149 722 -897 0
21 148 722 897 0
-148 -722 0
-148 149 -897 0
-21 -148 897 0
-41 149 1083 0
21 41 149 0
-41 -149 -1083 0
-21 41 -149 0
-46 149 150 0
46 -150 0
-149 -150 0
48 151 -722 0
151 -722 1084 0
-151 722 0
-48 -151 -1084 0
146 152 -918 0
52 147 152 0
146 147 152 0
52 152 -918 0
-52 -146 -152 0
-147 -152 918 0
-56 153 -154 0
-56 153 161 0
56 -153 0
-153 154 -161 0
59 -96 154 -155 0
-59 -96 154 -694 0
96 -154 0
59 -154 155 0
-59 -154 694 0
-61 155 -693 0
61 155 -156 0
-61 -155 693 0
61 -155 156 0
88 156 157 160 0
88 156 157 -159 0
-88 -156 0
-156 -157 0
-156 159 -160 0
157 -158 301 -476 0
65 157 301 476 0
-157 -301 0
-157 158 -476 0
-65 -157 476 0
-87 158 691 0
65 87 158 0
-87 -158 -691 0
-65 87 -158 0
-92 158 159 0
92 -159 0
-158 -159 0
94 160 -301 0
160 -301 692 0
-160 301 0
-94 -160 -692 0
155 161 -497 0
98 156 161 0
155 156 161 0
98 161 -497 0
-98 -155 -161 0
-156 -161 497 0
144 162 -163 -211 0
-153 162 -163 -211 0
-162 211 0
-162 163 0
-144 153 -162 0
163 -164 -179 202 0
163 164 179 -193 0
163 164 179 202 0
163 -164 -179 -193 0
-163 164 -179 0
-163 -164 179 0
-163 193 -202 0
-7 164 -165 0
-7 164 -177 0
-7 164 -176 0
7 -164 0
-164 165 176 177 0
165 168 -169 0
-46 165 166 -169 0
-165 169 0
-165 -166 -168 0
46 -165 -168 0
-41 166 1102 0
41 166 167 0
-41 -166 -1102 0
41 -166 -167 0
-21 167 -1101 0
-167 1101 0
21 -167 0
48 168 -722 0
168 -722 1103 0
-168 722 0
-48 -168 -1103 0
169 -170 175 0
-169 170 0
-169 -175 0
42 170 171 0
-42 -170 0
-170 -171 0
-17 171 -918 0
171 -172 -918 0
-171 918 0
17 -171 172 0
-15 172 173 925 0
-54 172 173 -925 0
-172 -173 0
54 -172 -925 0
15 -172 925 0
53 173 -174 0
-53 -173 0
-173 174 0
174 -918 -925 -926 927 0
-174 926 0
-174 -927 0
-174 918 0
-174 925 0
-166 175 722 -897 0
167 175 722 897 0
-175 -722 0
166 -175 -897 0
-167 -175 897 0
-15 -50 176 -1105 0
-176 1105 0
15 -176 0
50 -176 0
-17 177 -178 -1104 0
-177 1104 0
17 -177 0
-177 178 0
172 178 -918 0
-178 918 0
-172 -178 0
-56 179 -180 0
-56 179 -191 0
-56 179 -190 0
56 -179 0
-179 180 190 191 0
180 183 -184 0
-92 180 181 -184 0
-180 184 0
-180 -181 -183 0
92 -180 -183 0
-87 181 710 0
87 181 182 0
-87 -181 -710 0
87 -181 -182 0
-65 182 -709 0
-182 709 0
65 -182 0
94 183 -301 0
183 -301 711 0
-183 301 0
-94 -183 -711 0
184 -185 189 0
-184 185 0
-184 -189 0
88 185 186 0
-88 -185 0
-185 -186 0
-61 186 -497 0
186 -187 -497 0
-186 497 0
61 -186 187 0
-59 187 188 504 0
-99 187 188 -504 0
-187 -188 0
99 -187 -504 0
59 -187 504 0
-99 100 188 -497 -504 0
99 -188 0
-100 -188 0
-188 497 0
-188 504 0
-181 189 301 -476 0
182 189 301 476 0
-189 -301 0
181 -189 -476 0
-182 -189 476 0
-59 -96 190 -713 0
-190 713 0
59 -190 0
96 -190 0
-61 191 -192 -712 0
-191 712 0
61 -191 0
-191 192 0
187 192 -497 0
-192 497 0
-187 -192 0
-7 193 -194 0
-7 193 -201 0
-7 193 -200 0
7 -193 0
-193 194 200 201 0
194 197 -198 0
-46 194 195 -198 0
-194 198 0
-194 -195 -197 0
46 -194 -197 0
-41 195 1093 0
41 195 196 0
-41 -195 -1093 0
41 -195 -196 0
-21 196 -1092 0
-196 1092 0
21 -196 0
48 197 -722 0
197 -722 1094 0
-197 722 0
-48 -197 -1094 0
-170 198 199 0
170 -198 0
-198 -199 0
-195 199 722 -897 0
196 199 722 897 0
-199 -722 0
195 -199 -897 0
-196 -199 897 0
-15 -50 200 -1096 0
-200 1096 0
15 -200 0
50 -200 0
-17 -178 201 -1095 0
-201 1095 0
17 -201 0
178 -201 0
-56 202 -203 0
-56 202 -210 0
-56 202 -209 0
56 -202 0
-202 203 209 210 0
203 206 -207 0
-92 203 204 -207 0
-203 207 0
-203 -204 -206 0
92 -203 -206 0
-87 204 701 0
87 204 205 0
-87 -204 -701 0
87 -204 -205 0
-65 205 -700 0
-205 700 0
65 -205 0
94 206 -301 0
206 -301 702 0
-206 301 0
-94 -206 -702 0
-185 207 208 0
185 -207 0
-207 -208 0
-204 208 301 -476 0
205 208 301 476 0
-208 -301 0
204 -208 -476 0
-205 -208 476 0
-59 -96 209 -704 0
-209 704 0
59 -209 0
96 -209 0
-61 -192 210 -703 0
-210 703 0
61 -210 0
192 -210 0
193 211 -212 -275 0
-202 211 -212 -275 0
-211 275 0
-211 212 0
-193 202 -211 0
212 -213 -244 -262 0
212 227 -244 -262 0
-212 262 0
-212 244 0
-212 213 -227 0
213 -218 722 0
47 213 214 -218 0
-213 218 0
-213 -214 -722 0
-47 -213 -722 0
214 215 -841 0
-22 214 -217 841 0
-214 -215 -841 0
22 -214 841 0
-214 217 841 0
-22 215 -216 0
22 -215 0
-215 216 0
216 -1070 -1072 0
36 216 1070 0
216 -1070 -1076 0
-36 -216 1070 0
-216 -1070 1072 1076 0
217 -1070 1072 1078 0
-217 1070 0
-217 -1078 0
-217 -1072 0
214 218 220 -224 0
218 -219 220 -224 0
-218 224 0
-218 -220 0
-214 -218 219 0
219 897 898 0
-219 -897 0
-219 -898 0
-214 220 221 0
215 220 -222 0
-214 215 220 0
220 221 -222 0
214 -220 222 0
-215 -220 -221 0
221 899 900 901 0
-221 -899 0
-221 -901 0
-221 -900 0
222 -223 722 0
-222 -722 0
-222 223 0
-221 223 897 898 0
221 -223 0
-223 -898 0
-223 -897 0
-8 224 -225 0
8 -224 0
-224 225 0
10 225 -226 0
13 225 -226 -954 0
-225 226 0
-10 -13 -225 0
-10 -225 954 0
42 174 226 0
42 53 226 0
-42 -226 0
-53 -174 -226 0
227 -232 301 0
93 227 228 -232 0
-227 232 0
-227 -228 -301 0
-93 -227 -301 0
228 229 -420 0
-70 228 -231 420 0
-228 -229 -420 0
70 -228 420 0
-228 231 420 0
-70 229 -230 0
70 -229 0
-229 230 0
230 -678 -680 0
66 230 678 0
230 -678 -684 0
-66 -230 678 0
-230 -678 680 684 0
231 -678 680 686 0
-231 678 0
-231 -686 0
-231 -680 0
228 232 234 -238 0
232 -233 234 -238 0
-232 238 0
-232 -234 0
-228 -232 233 0
233 476 477 0
-233 -476 0
-233 -477 0
-228 234 235 0
229 234 -236 0
-228 229 234 0
234 235 -236 0
228 -234 236 0
-229 -234 -235 0
235 478 479 480 0
-235 -478 0
-235 -480 0
-235 -479 0
236 -237 301 0
-236 -301 0
-236 237 0
-235 237 476 477 0
235 -237 0
-237 -477 0
-237 -476 0
-57 238 239 -242 0
57 -238 0
-238 -239 0
-238 242 0
-3 239 241 533 0
-3 239 -240 241 0
3 -239 0
-239 -241 0
-239 240 -533 0
-4 240 0
240 -542 548 0
240 542 549 0
4 -240 -542 -548 0
4 -240 542 -549 0
4 241 -542 548 0
4 241 542 549 0
-4 -241 0
-241 542 -549 0
-241 -542 -548 0
88 242 243 0
88 100 242 0
88 242 497 0
-88 -242 0
-100 -242 -243 -497 0
-99 243 -504 0
-243 504 0
99 -243 0
244 245 248 250 -256 0
244 -245 -248 250 -256 0
-244 -250 0
-244 245 -248 0
-244 256 0
-244 -245 248 0
-70 -238 245 -246 247 0
238 -245 0
-245 -247 0
70 -245 0
-245 246 0
246 -678 680 0
-246 678 0
-246 -680 0
-93 247 -301 0
-247 301 0
93 -247 0
-8 -22 -225 248 -249 0
-248 249 0
8 -248 0
225 -248 0
22 -248 0
249 722 -1070 1072 0
47 249 -1070 1072 0
-249 1070 0
-249 -1072 0
-47 -249 -722 0
250 251 -253 0
-250 -251 0
-250 253 0
251 252 -992 998 0
251 252 992 999 0
-251 -252 0
-251 992 -999 0
-251 -992 -998 0
252 983 0
252 -984 -990 0
252 984 -991 0
-252 -983 984 991 0
-252 -983 -984 990 0
-252 253 -255 0
253 254 -255 0
-253 255 0
252 -253 -254 0
254 -992 -998 0
254 992 -999 0
-254 992 999 0
-254 -992 998 0
255 983 0
255 -984 990 0
255 984 991 0
-255 -983 984 -991 0
-255 -983 -984 -990 0
12 256 -257 0
11 256 -257 0
13 256 -257 0
-256 257 0
-11 -12 -13 -256 0
23 30 257 -258 0
-29 30 257 -258 0
-257 258 0
-30 -257 0
-23 29 -257 0
36 -226 258 259 -260 0
226 -258 0
-258 -259 0
-36 -258 0
-258 260 0
-47 259 -722 0
-259 722 0
47 -259 0
260 -261 -724 -1012 0
260 -261 -725 -1012 0
-260 261 0
-260 1012 0
-260 724 725 0
261 -726 -1041 0
261 727 -1041 0
-261 1041 0
-261 726 -727 0
213 262 -263 -269 0
-227 262 263 269 0
213 262 263 269 0
-227 262 -263 -269 0
-262 263 -269 0
-262 -263 269 0
-213 227 -262 0
263 -267 301 0
93 263 -264 -267 0
-263 267 0
-263 264 -301 0
-93 -263 -301 0
264 420 -716 0
264 -265 -420 0
-264 265 -420 0
-264 420 716 0
-70 265 -678 0
66 -70 265 266 0
70 -265 0
-265 -266 678 0
-66 -265 678 0
266 312 715 0
-266 -312 0
-266 -715 0
-238 267 268 0
238 -267 0
-267 -268 0
237 264 268 0
264 265 268 0
-237 265 268 301 0
-237 -265 -268 0
237 -264 -268 0
-264 -268 -301 0
-224 269 270 722 0
-224 269 270 -274 0
224 -269 0
-269 -270 0
-269 274 -722 0
223 270 273 0
270 271 273 0
-223 270 271 722 0
-223 -270 -271 0
223 -270 -273 0
-270 -273 -722 0
-22 271 -1070 0
-22 36 271 272 0
22 -271 0
-271 -272 1070 0
-36 -271 1070 0
272 733 1107 0
-272 -733 0
-272 -1107 0
273 841 -1108 0
-271 273 -841 0
271 -273 -841 0
-273 841 1108 0
47 -273 274 0
-47 -274 0
273 -274 0
275 -276 -287 0
275 276 287 0
-275 276 -287 0
-275 -276 287 0
-56 186 276 277 0
-56 276 277 286 0
56 -276 0
-276 -277 0
-186 -276 -286 0
277 -279 280 0
61 277 278 280 0
-277 -280 0
-277 -278 279 0
-61 -277 279 0
-59 278 504 -708 0
59 -278 0
-278 708 0
-278 -504 0
61 279 497 0
279 497 707 0
188 279 497 0
-279 -497 0
-61 -188 -279 -707 0
88 280 281 285 0
88 280 281 -284 0
-88 -280 0
-280 -281 0
-280 284 -285 0
281 -283 301 -476 0
281 282 301 476 0
-281 -301 0
-281 283 -476 0
-281 -282 476 0
-65 282 -305 0
-282 305 0
65 -282 0
-87 283 705 0
87 282 283 0
-87 -283 -705 0
87 -282 -283 0
-92 283 284 0
92 -284 0
-283 -284 0
94 285 -301 0
285 -301 706 0
-285 301 0
-94 -285 -706 0
-187 278 286 0
278 286 707 0
-278 -286 0
187 -286 -707 0
-7 171 287 288 0
-7 287 288 296 0
7 -287 0
-287 -288 0
-171 -287 -296 0
288 290 918 0
17 288 289 290 0
-288 -290 0
-288 -289 -918 0
-17 -288 -918 0
-15 289 925 -1100 0
15 -289 0
-289 1100 0
-289 -925 0
42 290 291 295 0
42 290 291 -294 0
-42 -290 0
-290 -291 0
-290 294 -295 0
291 -293 722 -897 0
291 292 722 897 0
-291 -722 0
-291 293 -897 0
-291 -292 897 0
-21 292 -726 0
-292 726 0
21 -292 0
-41 293 1097 0
41 292 293 0
-41 -293 -1097 0
41 -292 -293 0
-46 293 294 0
46 -294 0
-293 -294 0
48 295 -722 0
295 -722 1098 0
-295 722 0
-48 -295 -1098 0
-172 289 296 0
289 296 1099 0
-289 -296 0
172 -296 -1099 0
66 -242 297 298 -299 0
242 -297 0
-297 -298 0
-66 -297 0
-297 299 0
78 82 84 298 0
-78 -298 0
-84 -298 0
-82 -298 0
-57 71 247 299 -300 0
-299 300 0
-247 -299 0
57 -299 0
-71 -299 0
300 -304 -305 0
300 -303 306 0
300 -303 -305 0
300 -304 306 0
-300 305 -306 0
-300 303 304 0
1 2 0
-1 -2 0
1114 0

